
450
750
   600      1
   599      3
   597      1
   596      4
   595      4
   594      3
   593      4
   592      4
   591      2
   590      2
   589      2
   588      4
   586      1
   585      2
   584      3
   583      1
   582      1
   581      4
   580      1
   579      2
   577      4
   576      2
   575      5
   574      4
   573      2
   571      1
   570      1
   569      4
   568      2
   567      2
   566      2
   565      3
   564      2
   563      4
   562      4
   561      3
   560      2
   559      4
   558      3
   557      3
   555      3
   554      1
   552      2
   551      3
   550      3
   548      1
   547      2
   546      1
   545      1
   544      1
   543      1
   542      1
   541      1
   540      3
   539      5
   538      3
   537      4
   536      1
   535      1
   533      2
   531      1
   530      2
   529      2
   527      2
   526      2
   525      2
   524      2
   523      5
   522      2
   521      4
   520      2
   519      1
   518      2
   517      2
   516      3
   513      1
   512      1
   511      1
   510      4
   509      2
   508      2
   507      2
   506      6
   505      4
   504      1
   502      2
   501      2
   500      4
   499      1
   497      1
   495      5
   494      2
   493      1
   492      1
   491      3
   490      2
   489      3
   488      3
   487      1
   486      4
   485      3
   483      3
   481      2
   480      1
   478      3
   477      4
   476      2
   475      1
   474      2
   473      2
   472      4
   471      3
   470      4
   469      4
   468      2
   467      5
   465      1
   464      2
   463      2
   462      2
   461      1
   460      1
   459      1
   458      1
   456      2
   455      1
   454      1
   453      2
   451      2
   450      1
   449      1
   448      2
   447      1
   446      1
   445      1
   444      2
   443      4
   441      2
   440      2
   439      3
   438      2
   437      1
   436      2
   435      1
   434      3
   433      3
   432      3
   431      3
   428      6
   427      1
   426      4
   425      2
   424      3
   423      5
   422      2
   421      5
   420      2
   419      6
   418      3
   417      1
   416      1
   415      4
   414      3
   413      4
   412      2
   411      2
   409      1
   407      3
   406      2
   405      2
   404      1
   402      2
   401      2
   400      1
   398      2
   397      3
   395      2
   394      2
   393      2
   391      3
   389      1
   386      3
   385      2
   384      4
   383      1
   382      2
   381      5
   380      3
   379      2
   378      1
   377      2
   376      3
   375      4
   374      1
   373      3
   372      3
   371      2
   370      2
   369      3
   368      3
   367      2
   366      1
   365      1
   364      1
   362      1
   361      1
   360      3
   359      1
   358      1
   356      2
   355      3
   353      1
   352      3
   351      3
   350      1
   349      2
   348      4
   347      2
   346      3
   345      2
   344      1
   343      2
   342      2
   341      3
   339      1
   338      4
   337      3
   334      3
   333      2
   332      1
   331      3
   329      4
   327      1
   326      1
   325      1
   324      3
   323      3
   322      1
   321      1
   320      2
   319      2
   318      1
   317      2
   316      2
   315      1
   314      2
   313      2
   312      2
   311      3
   310      1
   309      2
   308      2
   306      1
   305      1
   304      3
   303      3
   302      2
   301      3
   300      2
   299      2
   298      2
   297      3
   296      4
   295      1
   292      2
   291      3
   290      2
   289      2
   288      2
   287      1
   286      3
   285      3
   283      1
   282      6
   281      3
   279      1
   278      1
   277      4
   276      1
   275      2
   274      3
   273      2
   272      4
   271      1
   270      3
   268      3
   267      3
   266      1
   265      3
   264      2
   263      1
   262      1
   260      1
   258      2
   257      1
   256      1
   255      2
   254      2
   253      1
   252      2
   251      2
   250      1
   249      2
   248      2
   247      1
   246      1
   245      3
   244      5
   243      1
   242      1
   241      4
   240      2
   239      1
   237      3
   236      1
   235      1
   233      1
   232      4
   231      3
   230      2
   229      5
   228      2
   227      1
   226      3
   225      2
   224      4
   222      3
   220      2
   218      1
   217      1
   215      1
   214      3
   213      2
   212      4
   210      2
   209      4
   208      3
   207      3
   206      3
   204      2
   203      1
   202      3
   201      1
   200      1
   199      1
   198      1
   197      2
   196      2
   195      1
   194      4
   193      3
   192      4
   191      2
   189      3
   188      2
   187      1
   186      1
   185      4
   184      1
   183      3
   181      1
   180      2
   179      1
   177      2
   176      5
   175      2
   174      1
   173      1
   172      2
   171      1
   170      3
   169      2
   168      3
   166      2
   165      4
   164      1
   163      2
   162      1
   161      5
   160      1
   159      2
   158      2
   157      1
   156      2
   155      1
   154      2
   152      1
   151      2
   150      2
   149      1
   147      2
   146      2
   145      2
   144      6
   143      2
   142      2
   141      3
   140      2
   139      2
   138      1
   137      1
   136      2
   135      2
   134      2
   133      1
   132      2
   131      2
   130      1
   129      1
   128      2
   127      3
   126      3
   125      1
   124      1
   123      4
   121      3
   120      1
   119      2
   118      3
   117      2
   115      1
   114      1
   113      3
   112      3
   108      1
   105      4
   104      1
   103      5
   102      2
   101      5
   100      2
    99      3
    97      2
    96      1
    95      2
    93      1
    92      2
    91      3
    90      1
    89      2
    87      1
    86      2
    85      4
    84      4
    83      4
    80      1
    78      1
    77      2
    76      1
    75      1




The initial LP solution: time=1.86


File: BPP_1000_750_0.1_0.8_0.txt  Instance No. 1
Wed Feb 25 13:56:01 2015

LP solution: lpval=462.9951989026062 lpbnd=463

2: 3:1 393:1 obj 1\\
2: 4:1 385:1 obj 1\\
1.961591220850479: 5:1 387:1 obj 1\\
0.03840877914952068: 5:1 390:1 obj 1\\
0.9615912208504793: 7:1 383:1 obj 1\\
3: 11:1 378:1 obj 1\\
2: 13:1 374:1 obj 1\\
2: 17:1 372:1 obj 1\\
4: 23:1 364:1 obj 1\\
1: 27:1 360:1 obj 1\\
0.3341383487852041: 34:1 434:1 435:1 obj 1\\
3: 35:1 353:1 obj 1\\
2: 37:1 352:1 obj 1\\
2: 40:1 349:1 obj 1\\
2: 42:1 346:1 obj 1\\
1: 43:1 347:1 obj 1\\
1: 49:1 338:1 obj 1\\
1: 53:1 336:1 obj 1\\
2: 54:1 334:1 obj 1\\
3: 55:1 333:1 obj 1\\
0.4788513425886368: 58:1 331:1 obj 1\\
2: 66:1 323:1 obj 1\\
1: 67:1 322:1 obj 1\\
0.1008979059054511: 67:1 324:1 obj 1\\
4: 69:1 320:1 obj 1\\
1: 73:1 317:1 obj 1\\
1.429852946293292: 74:1 318:1 obj 1\\
1: 87:1 304:1 obj 1\\
2: 90:1 296:1 obj 1\\
1: 91:1 295:1 obj 1\\
1: 94:1 293:1 obj 1\\
1: 106:1 283:1 obj 1\\
1: 106:1 285:1 obj 1\\
1: 109:1 281:1 obj 1\\
1: 110:1 276:1 obj 1\\
1: 110:1 279:1 obj 1\\
1: 110:1 280:1 obj 1\\
1: 112:1 277:1 obj 1\\
3: 113:1 274:1 obj 1\\
4: 115:1 273:1 obj 1\\
2: 117:1 270:1 obj 1\\
2: 119:1 268:1 obj 1\\
1: 120:1 267:1 obj 1\\
1: 125:1 263:1 obj 1\\
1: 130:1 257:1 obj 1\\
1: 131:1 256:1 obj 1\\
1: 132:1 255:1 obj 1\\
1: 135:1 262:1 obj 1\\
1: 136:1 255:1 obj 1\\
2: 136:1 258:1 obj 1\\
1: 137:1 253:1 obj 1\\
2: 138:1 251:1 obj 1\\
3: 139:1 248:1 obj 1\\
1: 140:1 261:1 obj 1\\
1: 144:1 249:1 obj 1\\
1: 144:1 250:1 obj 1\\
1: 145:1 245:1 obj 1\\
2: 146:1 243:1 obj 1\\
1: 146:1 247:1 obj 1\\
1: 148:1 237:1 obj 1\\
1: 150:1 240:1 obj 1\\
1: 151:1 235:1 obj 1\\
0.009602194787380225: 152:1 262:1 obj 1\\
0.8991020940945489: 153:1 325:1 427:1 obj 1\\
1: 155:1 325:1 425:1 obj 1\\
3: 157:1 230:1 obj 1\\
3: 163:1 226:1 obj 1\\
1: 168:1 221:1 obj 1\\
2: 172:1 215:1 obj 1\\
2: 174:1 216:1 obj 1\\
2: 175:1 213:1 obj 1\\
1: 177:1 210:1 obj 1\\
2: 178:1 212:1 obj 1\\
2: 179:1 209:1 obj 1\\
1: 180:1 213:1 obj 1\\
1: 182:1 204:1 obj 1\\
2: 185:1 199:1 obj 1\\
0.5048010973936901: 186:1 201:1 obj 1\\
2: 187:1 197:1 obj 1\\
0.5048010973936901: 187:1 198:1 obj 1\\
2: 191:1 195:1 obj 1\\
2: 192:2 obj 1\\
1: 173:1 214:1 obj 1\\
1: 45:1 341:1 obj 1\\
3: 100:1 288:1 obj 1\\
3: 104:1 284:1 obj 1\\
1: 112:1 275:1 obj 1\\
1: 135:1 252:1 obj 1\\
2: 147:1 254:1 obj 1\\
0.5048010973936901: 183:1 217:1 obj 1\\
2: 22:1 365:1 obj 1\\
3: 38:1 351:1 obj 1\\
1: 97:1 291:1 obj 1\\
1: 122:1 265:1 obj 1\\
1: 133:1 254:1 obj 1\\
1: 136:1 259:1 obj 1\\
1: 141:1 246:1 obj 1\\
1: 143:1 257:1 obj 1\\
1: 144:1 245:1 obj 1\\
1: 148:1 244:1 obj 1\\
3: 161:1 227:1 obj 1\\
3: 39:1 350:1 obj 1\\
1: 46:1 341:1 obj 1\\
1: 57:1 331:1 obj 1\\
1: 59:1 329:1 obj 1\\
1: 103:1 287:1 obj 1\\
2: 108:1 280:1 obj 1\\
1: 109:1 279:1 obj 1\\
1: 170:1 218:1 obj 1\\
1: 1:1 389:1 obj 1\\
1: 1:1 391:1 obj 1\\
0.9615912208504793: 1:1 393:1 obj 1\\
1.038408779149521: 6:1 383:1 obj 1\\
1: 20:1 367:1 obj 1\\
1: 24:1 364:1 obj 1\\
1: 43:1 344:1 obj 1\\
1: 76:1 313:1 obj 1\\
2: 78:1 311:1 obj 1\\
1: 81:1 309:1 obj 1\\
2: 99:1 289:1 obj 1\\
4: 105:1 282:1 obj 1\\
2: 128:1 260:1 obj 1\\
1: 134:1 255:1 obj 1\\
1: 140:1 250:1 obj 1\\
1: 142:1 247:1 obj 1\\
2: 145:1 242:1 obj 1\\
1: 148:1 238:1 obj 1\\
2: 164:1 225:1 obj 1\\
1: 165:1 224:1 obj 1\\
2: 171:1 216:1 obj 1\\
2: 176:1 210:1 obj 1\\
1: 179:1 208:1 obj 1\\
1: 182:1 206:1 obj 1\\
1: 183:1 202:1 obj 1\\
2: 4:1 388:1 obj 1\\
1: 9:1 379:1 obj 1\\
2: 10:1 378:1 obj 1\\
1: 27:1 363:1 obj 1\\
1: 47:1 339:1 obj 1\\
2: 53:1 335:1 obj 1\\
2: 64:1 325:1 obj 1\\
1: 74:1 317:1 obj 1\\
1: 78:1 312:1 obj 1\\
5: 82:1 307:1 obj 1\\
0.5363427309793365: 91:1 402:1 415:1 obj 1\\
3: 101:1 286:1 obj 1\\
3: 111:1 277:1 obj 1\\
2: 114:1 273:1 obj 1\\
0.3461803677449768: 157:1 320:1 428:1 obj 1\\
1: 160:1 228:1 obj 1\\
1: 165:1 225:1 obj 1\\
1: 175:1 211:1 obj 1\\
1: 177:1 212:1 obj 1\\
1: 181:1 207:1 obj 1\\
1: 184:1 200:1 obj 1\\
2: 7:1 381:1 obj 1\\
2: 8:1 380:1 obj 1\\
1: 15:1 373:1 obj 1\\
1: 52:1 336:1 obj 1\\
2: 54:1 335:1 obj 1\\
2: 56:1 332:1 obj 1\\
0.5211486574113632: 58:1 330:1 obj 1\\
2: 63:1 326:1 obj 1\\
1: 67:1 323:1 obj 1\\
3: 83:1 306:1 obj 1\\
1: 83:1 393:1 429:1 obj 1\\
2: 86:1 302:1 obj 1\\
1: 95:1 292:1 obj 1\\
1: 115:1 272:1 obj 1\\
1: 121:1 266:1 obj 1\\
2: 127:1 261:1 obj 1\\
1: 129:1 259:1 obj 1\\
1: 131:1 257:1 obj 1\\
1: 148:1 240:1 obj 1\\
1: 152:1 236:1 obj 1\\
2: 167:1 222:1 obj 1\\
1: 183:1 205:1 obj 1\\
2.49519890260631: 186:1 198:1 obj 1\\
1: 186:1 199:1 obj 1\\
1: 6:1 382:1 obj 1\\
1.961591220850479: 6:1 390:1 obj 1\\
1: 11:1 377:1 obj 1\\
2: 14:1 374:1 obj 1\\
1: 20:1 370:1 obj 1\\
1: 32:1 356:1 obj 1\\
1: 33:1 355:1 obj 1\\
2: 34:1 354:1 obj 1\\
2: 61:1 327:1 obj 1\\
2.063530322248686: 67:1 411:1 429:1 obj 1\\
2: 68:1 321:1 obj 1\\
1: 71:1 318:1 obj 1\\
2: 72:1 317:1 obj 1\\
1: 75:1 313:1 obj 1\\
2: 85:1 303:1 obj 1\\
1: 89:1 299:1 obj 1\\
2: 102:1 285:1 obj 1\\
1: 113:1 396:1 397:1 obj 1\\
1: 123:1 265:1 obj 1\\
2: 124:1 264:1 obj 1\\
1: 126:1 262:1 obj 1\\
2: 148:1 239:1 obj 1\\
1: 159:1 228:1 obj 1\\
1: 166:1 223:1 obj 1\\
2: 188:1 196:1 obj 1\\
1: 189:1 195:1 obj 1\\
0.5: 193:1 194:1 obj 1\\
1.103710978892462: 22:1 437:1 443:1 obj 1\\
1: 30:1 359:1 obj 1\\
1: 44:1 343:1 obj 1\\
0.5211486574113632: 44:1 414:1 447:1 obj 1\\
1: 46:1 340:1 obj 1\\
0.4788513425886368: 59:1 330:1 obj 1\\
0.1217386857635102: 78:1 394:1 432:1 obj 1\\
2: 79:1 310:1 obj 1\\
1: 81:1 308:1 obj 1\\
1: 87:1 301:1 obj 1\\
1: 88:1 300:1 obj 1\\
0.1295162842975068: 97:1 401:1 411:1 obj 1\\
1: 98:1 290:1 obj 1\\
0.2420692534707403: 99:1 405:2 obj 1\\
1: 107:1 281:1 obj 1\\
1: 110:1 278:1 obj 1\\
0.5: 112:1 397:2 obj 1\\
1: 118:1 269:1 obj 1\\
0.2964750128897355: 157:1 331:1 419:1 obj 1\\
1: 158:1 337:1 412:1 obj 1\\
0.5130637085116547: 161:1 338:1 408:1 obj 1\\
1: 168:1 220:1 obj 1\\
2: 169:1 219:1 obj 1\\
2: 181:1 206:1 obj 1\\
1: 183:1 203:1 obj 1\\
2: 190:1 194:1 obj 1\\
0.5: 191:1 194:1 obj 1\\
0.2150609059824199: 217:1 266:1 422:1 obj 1\\
0.2801379966238901: 217:1 267:1 421:1 obj 1\\
1: 5:1 384:1 obj 1\\
1: 7:1 444:1 449:1 obj 1\\
2: 17:1 371:1 obj 1\\
1: 18:1 370:1 obj 1\\
1: 19:1 369:1 obj 1\\
1: 26:1 361:1 obj 1\\
1: 30:1 358:1 obj 1\\
3: 31:1 357:1 obj 1\\
1: 56:1 333:1 obj 1\\
1: 60:1 328:1 obj 1\\
0.4730338275189809: 62:1 406:1 438:1 obj 1\\
2: 70:1 319:1 obj 1\\
2: 90:1 297:1 obj 1\\
0.5227602698778702: 95:1 396:1 417:1 obj 1\\
1: 116:1 271:1 obj 1\\
1: 118:1 270:1 obj 1\\
1: 137:1 256:1 obj 1\\
1: 142:1 246:1 obj 1\\
1: 147:1 241:1 obj 1\\
1: 149:1 236:1 obj 1\\
2: 150:1 235:1 obj 1\\
1: 153:1 232:1 obj 1\\
0.4645355635477179: 154:1 315:1 435:1 obj 1\\
1: 158:1 229:1 obj 1\\
0.4951989026063099: 183:1 201:1 obj 1\\
1: 186:1 200:1 obj 1\\
2: 3:1 392:1 obj 1\\
1: 9:1 444:1 447:1 obj 1\\
2: 20:1 368:1 obj 1\\
1: 27:1 361:1 obj 1\\
1: 32:1 357:1 obj 1\\
0.9615912208504793: 36:1 423:1 446:1 obj 1\\
1.473033827518981: 37:1 431:1 436:1 obj 1\\
1: 40:1 348:1 obj 1\\
1: 41:1 347:1 obj 1\\
1: 43:1 345:1 obj 1\\
1: 50:1 337:1 obj 1\\
1: 51:1 336:1 obj 1\\
0.3982828445777175: 62:1 400:1 443:1 obj 1\\
0.6584873511881235: 62:1 407:1 437:1 obj 1\\
0.3204525589158489: 67:1 409:1 431:1 obj 1\\
1: 73:1 316:1 obj 1\\
0.4146040452158263: 78:1 396:1 431:1 obj 1\\
2: 80:1 310:1 obj 1\\
0.7014510311262063: 94:1 401:1 414:1 obj 1\\
0.5119223473765562: 96:1 404:1 409:1 obj 1\\
0.009602194787380225: 153:1 376:2 obj 1\\
4: 155:1 231:1 obj 1\\
0.6538196322550232: 156:1 320:1 429:1 obj 1\\
0.5: 191:1 193:1 obj 1\\
0.318875740830363: 218:1 262:1 424:1 obj 1\\
0.6086159322416332: 225:1 271:1 410:1 obj 1\\
0.03840877914952068: 1:1 387:1 obj 1\\
1: 2:1 386:1 obj 1\\
1: 12:1 375:1 obj 1\\
1: 14:1 373:1 obj 1\\
1: 16:1 372:1 obj 1\\
0.5269661724810191: 22:1 436:1 444:1 obj 1\\
1.369322848626519: 22:1 439:1 441:1 obj 1\\
1: 24:1 363:1 obj 1\\
1: 25:1 362:1 obj 1\\
0.4788513425886368: 27:1 426:1 447:1 obj 1\\
0.4730338275189809: 28:1 431:1 444:1 obj 1\\
2: 29:1 359:1 obj 1\\
1.035184499841315: 34:1 427:1 442:1 obj 1\\
1: 48:1 339:1 obj 1\\
0.318875740830363: 54:1 420:1 433:1 obj 1\\
0.681124259169637: 54:1 424:1 427:1 obj 1\\
0.5211486574113632: 59:1 422:1 426:1 obj 1\\
1.899102094094549: 65:1 324:1 obj 1\\
0.236087783060197: 82:1 414:1 415:1 obj 1\\
1: 84:1 305:1 obj 1\\
1.226285256988135: 96:1 393:1 419:1 obj 1\\
1.40102158411436: 99:1 394:1 415:1 obj 1\\
0.8121235221613873: 112:1 393:1 401:1 obj 1\\
1: 151:1 234:1 obj 1\\
1: 152:1 233:1 obj 1\\
1: 153:1 351:1 402:1 obj 1\\
0.5354644364522821: 156:1 315:1 434:1 obj 1\\
0.6017171554222825: 157:1 349:1 400:1 obj 1\\
0.5211486574113632: 162:1 299:1 443:1 obj 1\\
1.398282844577718: 162:1 349:1 395:1 obj 1\\
1: 0:1 391:1 obj 1\\
0.03840877914952068: 7:1 445:1 446:1 obj 1\\
1: 21:1 366:1 obj 1\\
1.408065337521312: 28:1 432:1 442:1 obj 1\\
0.1189008349597074: 28:1 437:2 obj 1\\
1.976857519118458: 33:1 427:1 443:1 obj 1\\
0.6306771513734808: 36:1 429:1 439:1 obj 1\\
0.5922683722239601: 44:1 422:1 440:1 obj 1\\
0.6736671906911307: 56:1 418:1 434:1 obj 1\\
0.5151192129300135: 67:1 420:1 423:1 obj 1\\
1: 77:1 313:1 obj 1\\
0.4636572690206635: 78:1 402:1 425:1 obj 1\\
1: 90:1 298:1 obj 1\\
1: 92:1 294:1 obj 1\\
1: 93:1 293:1 obj 1\\
1.261792395635309: 96:1 403:1 410:1 obj 1\\
1.149928460643867: 97:1 398:1 414:1 obj 1\\
0.3569091624148997: 99:1 401:1 409:1 obj 1\\
1: 150:1 236:1 obj 1\\
0.5701470537067084: 157:1 318:1 430:1 obj 1\\
0.5298040232848219: 157:1 337:1 413:1 obj 1\\
0.1680605506579823: 161:1 342:1 403:1 obj 1\\
0.2054481674432121: 162:1 326:1 421:1 obj 1\\
1: 167:1 221:1 obj 1\\
1.391384067758367: 218:1 271:1 417:1 obj 1\\
1: 19:1 370:1 obj 1\\
0.6306771513734808: 34:1 428:1 441:1 obj 1\\
0.5269661724810191: 37:1 429:1 438:1 obj 1\\
0.1008979059054511: 65:1 325:1 obj 1\\
0.5701470537067084: 74:1 403:1 430:1 obj 1\\
0.763912216939803: 82:1 398:1 425:1 obj 1\\
1.515861493058519: 87:1 405:1 418:1 obj 1\\
0.8104713162503498: 94:1 396:1 418:1 obj 1\\
0.7205552550586281: 97:1 406:2 obj 1\\
0.08615932241633018: 112:1 396:1 398:1 obj 1\\
0.8265479018461057: 153:1 338:1 415:1 obj 1\\
0.4788513425886368: 154:1 299:1 448:1 obj 1\\
0.8107159312926947: 156:1 341:1 409:1 obj 1\\
0.4663923182441694: 157:1 300:1 445:1 obj 1\\
0.681124259169637: 158:1 314:1 433:1 obj 1\\
0.3415126488118765: 162:1 338:1 407:1 obj 1\\
0.4951989026063099: 187:1 266:1 445:1 obj 1\\
1.671522064382257: 223:1 262:1 422:1 obj 1\\
0.3913840677583668: 225:1 267:1 414:1 obj 1\\
1: 21:1 437:1 444:1 obj 1\\
0.5211486574113632: 27:1 425:1 448:1 obj 1\\
1.023142480881542: 33:1 428:1 442:1 obj 1\\
0.4077316277760399: 36:1 427:1 440:1 obj 1\\
0.4298529462932916: 44:1 430:2 obj 1\\
0.2013260876670787: 56:1 416:1 435:1 obj 1\\
0.4701959767151781: 62:1 413:1 432:1 obj 1\\
0.08585566236376307: 87:1 406:1 417:1 obj 1\\
0.4880776526234438: 94:1 404:1 411:1 obj 1\\
0.4772397301221298: 95:1 394:1 419:1 obj 1\\
0.6017171554222825: 112:1 395:1 399:1 obj 1\\
0.9903978052126198: 152:1 376:2 obj 1\\
0.8319394493420177: 154:1 342:1 410:1 obj 1\\
0.1892840687073053: 157:1 341:1 408:1 obj 1\\
0.318875740830363: 158:1 338:1 411:1 obj 1\\
0.5336076817558306: 162:1 300:1 442:1 obj 1\\
1: 163:1 331:1 414:1 obj 1\\
1: 217:1 265:1 423:1 obj 1\\
0.3284779356177432: 223:1 267:1 416:1 obj 1\\
0.4567300240713824: 44:1 425:1 434:1 obj 1\\
0.1250067216417906: 56:1 423:1 429:1 obj 1\\
0.3982828445777175: 87:1 399:1 423:1 obj 1\\
0.1660050462396235: 91:1 396:1 420:1 obj 1\\
0.29765222278104: 91:1 408:1 410:1 obj 1\\
0.7945518325567879: 153:1 326:1 425:1 obj 1\\
0.4701959767151781: 153:1 337:1 416:1 obj 1\\
0.2246736445216276: 154:1 331:1 421:1 obj 1\\
0.318875740830363: 161:1 314:1 431:1 obj 1\\
0.2897401914112703: 218:1 266:1 421:1 obj 1\\






File: BPP_1000_750_0.1_0.8_0.txt  Instance No. 1
Wed Feb 25 13:56:02 2015

LP0 Time: 1.86 IPTime: 3.22 The best integer solution (464):

2: 3:1 393:1 obj 1\\
2: 4:1 385:1 obj 1\\
2: 5:1 387:1 obj 1\\
1: 7:1 383:1 obj 1\\
3: 11:1 378:1 obj 1\\
2: 13:1 374:1 obj 1\\
2: 17:1 372:1 obj 1\\
4: 23:1 364:1 obj 1\\
1: 27:1 360:1 obj 1\\
3: 35:1 353:1 obj 1\\
2: 37:1 352:1 obj 1\\
2: 40:1 349:1 obj 1\\
2: 42:1 346:1 obj 1\\
1: 43:1 347:1 obj 1\\
1: 49:1 338:1 obj 1\\
1: 53:1 336:1 obj 1\\
2: 54:1 334:1 obj 1\\
3: 55:1 333:1 obj 1\\
2: 66:1 323:1 obj 1\\
1: 67:1 322:1 obj 1\\
4: 69:1 320:1 obj 1\\
1: 73:1 317:1 obj 1\\
1: 74:1 318:1 obj 1\\
1: 87:1 304:1 obj 1\\
2: 90:1 296:1 obj 1\\
1: 91:1 295:1 obj 1\\
1: 94:1 293:1 obj 1\\
1: 106:1 283:1 obj 1\\
1: 106:1 285:1 obj 1\\
1: 109:1 281:1 obj 1\\
1: 110:1 276:1 obj 1\\
1: 110:1 279:1 obj 1\\
1: 110:1 280:1 obj 1\\
1: 112:1 277:1 obj 1\\
3: 113:1 274:1 obj 1\\
4: 115:1 273:1 obj 1\\
2: 117:1 270:1 obj 1\\
2: 119:1 268:1 obj 1\\
1: 120:1 267:1 obj 1\\
1: 125:1 263:1 obj 1\\
1: 130:1 257:1 obj 1\\
1: 131:1 256:1 obj 1\\
1: 132:1 255:1 obj 1\\
1: 135:1 262:1 obj 1\\
1: 136:1 255:1 obj 1\\
2: 136:1 258:1 obj 1\\
1: 137:1 253:1 obj 1\\
2: 138:1 251:1 obj 1\\
3: 139:1 248:1 obj 1\\
1: 140:1 261:1 obj 1\\
1: 144:1 249:1 obj 1\\
1: 144:1 250:1 obj 1\\
1: 145:1 245:1 obj 1\\
2: 146:1 243:1 obj 1\\
1: 146:1 247:1 obj 1\\
1: 148:1 237:1 obj 1\\
1: 150:1 240:1 obj 1\\
1: 151:1 235:1 obj 1\\
1: 153:1 325:1 427:1 obj 1\\
1: 155:1 325:1 425:1 obj 1\\
3: 157:1 230:1 obj 1\\
3: 163:1 226:1 obj 1\\
1: 168:1 221:1 obj 1\\
2: 172:1 215:1 obj 1\\
2: 174:1 216:1 obj 1\\
2: 175:1 213:1 obj 1\\
1: 177:1 210:1 obj 1\\
2: 178:1 212:1 obj 1\\
2: 179:1 209:1 obj 1\\
1: 180:1 213:1 obj 1\\
1: 182:1 204:1 obj 1\\
2: 185:1 199:1 obj 1\\
1: 186:1 201:1 obj 1\\
2: 187:1 197:1 obj 1\\
1: 187:1 198:1 obj 1\\
2: 191:1 195:1 obj 1\\
2: 192:2 obj 1\\
1: 173:1 214:1 obj 1\\
1: 45:1 341:1 obj 1\\
3: 100:1 288:1 obj 1\\
3: 104:1 284:1 obj 1\\
1: 112:1 275:1 obj 1\\
1: 135:1 252:1 obj 1\\
2: 147:1 254:1 obj 1\\
1: 183:1 217:1 obj 1\\
2: 22:1 365:1 obj 1\\
3: 38:1 351:1 obj 1\\
1: 97:1 291:1 obj 1\\
1: 122:1 265:1 obj 1\\
1: 133:1 254:1 obj 1\\
1: 136:1 259:1 obj 1\\
1: 141:1 246:1 obj 1\\
1: 143:1 257:1 obj 1\\
1: 144:1 245:1 obj 1\\
1: 148:1 244:1 obj 1\\
3: 161:1 227:1 obj 1\\
3: 39:1 350:1 obj 1\\
1: 46:1 341:1 obj 1\\
1: 57:1 331:1 obj 1\\
1: 59:1 329:1 obj 1\\
1: 103:1 287:1 obj 1\\
2: 108:1 280:1 obj 1\\
1: 109:1 279:1 obj 1\\
1: 170:1 218:1 obj 1\\
1: 1:1 389:1 obj 1\\
1: 1:1 391:1 obj 1\\
1: 1:1 393:1 obj 1\\
1: 6:1 383:1 obj 1\\
1: 20:1 367:1 obj 1\\
1: 24:1 364:1 obj 1\\
1: 43:1 344:1 obj 1\\
1: 76:1 313:1 obj 1\\
2: 78:1 311:1 obj 1\\
1: 81:1 309:1 obj 1\\
2: 99:1 289:1 obj 1\\
4: 105:1 282:1 obj 1\\
2: 128:1 260:1 obj 1\\
1: 134:1 255:1 obj 1\\
1: 140:1 250:1 obj 1\\
1: 142:1 247:1 obj 1\\
2: 145:1 242:1 obj 1\\
1: 148:1 238:1 obj 1\\
2: 164:1 225:1 obj 1\\
1: 165:1 224:1 obj 1\\
2: 171:1 216:1 obj 1\\
2: 176:1 210:1 obj 1\\
1: 179:1 208:1 obj 1\\
1: 182:1 206:1 obj 1\\
1: 183:1 202:1 obj 1\\
2: 4:1 388:1 obj 1\\
1: 9:1 379:1 obj 1\\
2: 10:1 378:1 obj 1\\
1: 27:1 363:1 obj 1\\
1: 47:1 339:1 obj 1\\
2: 53:1 335:1 obj 1\\
2: 64:1 325:1 obj 1\\
1: 74:1 317:1 obj 1\\
1: 78:1 312:1 obj 1\\
5: 82:1 307:1 obj 1\\
1: 91:1 402:1 415:1 obj 1\\
3: 101:1 286:1 obj 1\\
3: 111:1 277:1 obj 1\\
2: 114:1 273:1 obj 1\\
1: 160:1 228:1 obj 1\\
1: 165:1 225:1 obj 1\\
1: 175:1 211:1 obj 1\\
1: 177:1 212:1 obj 1\\
1: 181:1 207:1 obj 1\\
1: 184:1 200:1 obj 1\\
2: 7:1 381:1 obj 1\\
2: 8:1 380:1 obj 1\\
1: 15:1 373:1 obj 1\\
1: 52:1 336:1 obj 1\\
2: 54:1 335:1 obj 1\\
2: 56:1 332:1 obj 1\\
1: 58:1 330:1 obj 1\\
2: 63:1 326:1 obj 1\\
1: 67:1 323:1 obj 1\\
3: 83:1 306:1 obj 1\\
1: 83:1 393:1 429:1 obj 1\\
2: 86:1 302:1 obj 1\\
1: 95:1 292:1 obj 1\\
1: 115:1 272:1 obj 1\\
1: 121:1 266:1 obj 1\\
2: 127:1 261:1 obj 1\\
1: 129:1 259:1 obj 1\\
1: 131:1 257:1 obj 1\\
1: 148:1 240:1 obj 1\\
1: 152:1 236:1 obj 1\\
2: 167:1 222:1 obj 1\\
1: 183:1 205:1 obj 1\\
2: 186:1 198:1 obj 1\\
1: 186:1 199:1 obj 1\\
1: 6:1 382:1 obj 1\\
2: 6:1 390:1 obj 1\\
1: 11:1 377:1 obj 1\\
2: 14:1 374:1 obj 1\\
1: 20:1 370:1 obj 1\\
1: 32:1 356:1 obj 1\\
1: 33:1 355:1 obj 1\\
2: 34:1 354:1 obj 1\\
2: 61:1 327:1 obj 1\\
2: 67:1 411:1 429:1 obj 1\\
2: 68:1 321:1 obj 1\\
1: 71:1 318:1 obj 1\\
2: 72:1 317:1 obj 1\\
1: 75:1 313:1 obj 1\\
2: 85:1 303:1 obj 1\\
1: 89:1 299:1 obj 1\\
2: 102:1 285:1 obj 1\\
1: 113:1 396:1 397:1 obj 1\\
1: 123:1 265:1 obj 1\\
2: 124:1 264:1 obj 1\\
1: 126:1 262:1 obj 1\\
2: 148:1 239:1 obj 1\\
1: 159:1 228:1 obj 1\\
1: 166:1 223:1 obj 1\\
2: 188:1 196:1 obj 1\\
1: 189:1 195:1 obj 1\\
1: 22:1 437:1 443:1 obj 1\\
1: 30:1 359:1 obj 1\\
1: 44:1 343:1 obj 1\\
1: 44:1 414:1 447:1 obj 1\\
1: 46:1 340:1 obj 1\\
1: 78:1 394:1 432:1 obj 1\\
2: 79:1 310:1 obj 1\\
1: 81:1 308:1 obj 1\\
1: 87:1 301:1 obj 1\\
1: 88:1 300:1 obj 1\\
1: 98:1 290:1 obj 1\\
1: 107:1 281:1 obj 1\\
1: 110:1 278:1 obj 1\\
1: 118:1 269:1 obj 1\\
1: 158:1 337:1 412:1 obj 1\\
1: 161:1 338:1 408:1 obj 1\\
1: 168:1 220:1 obj 1\\
2: 169:1 219:1 obj 1\\
2: 181:1 206:1 obj 1\\
1: 183:1 203:1 obj 1\\
2: 190:1 194:1 obj 1\\
1: 5:1 384:1 obj 1\\
1: 7:1 444:1 449:1 obj 1\\
2: 17:1 371:1 obj 1\\
1: 18:1 370:1 obj 1\\
1: 19:1 369:1 obj 1\\
1: 26:1 361:1 obj 1\\
1: 30:1 358:1 obj 1\\
3: 31:1 357:1 obj 1\\
1: 56:1 333:1 obj 1\\
1: 60:1 328:1 obj 1\\
2: 70:1 319:1 obj 1\\
2: 90:1 297:1 obj 1\\
1: 95:1 396:1 417:1 obj 1\\
1: 116:1 271:1 obj 1\\
1: 118:1 270:1 obj 1\\
1: 137:1 256:1 obj 1\\
1: 142:1 246:1 obj 1\\
1: 147:1 241:1 obj 1\\
1: 149:1 236:1 obj 1\\
2: 150:1 235:1 obj 1\\
1: 153:1 232:1 obj 1\\
1: 154:1 315:1 435:1 obj 1\\
1: 158:1 229:1 obj 1\\
1: 186:1 200:1 obj 1\\
2: 3:1 392:1 obj 1\\
1: 9:1 444:1 447:1 obj 1\\
2: 20:1 368:1 obj 1\\
1: 27:1 361:1 obj 1\\
1: 32:1 357:1 obj 1\\
1: 36:1 423:1 446:1 obj 1\\
1: 37:1 431:1 436:1 obj 1\\
1: 40:1 348:1 obj 1\\
1: 41:1 347:1 obj 1\\
1: 43:1 345:1 obj 1\\
1: 50:1 337:1 obj 1\\
1: 51:1 336:1 obj 1\\
1: 62:1 407:1 437:1 obj 1\\
1: 73:1 316:1 obj 1\\
2: 80:1 310:1 obj 1\\
1: 94:1 401:1 414:1 obj 1\\
1: 96:1 404:1 409:1 obj 1\\
4: 155:1 231:1 obj 1\\
1: 156:1 320:1 429:1 obj 1\\
1: 191:1 193:1 obj 1\\
1: 225:1 271:1 410:1 obj 1\\
1: 2:1 386:1 obj 1\\
1: 12:1 375:1 obj 1\\
1: 14:1 373:1 obj 1\\
1: 16:1 372:1 obj 1\\
1: 22:1 436:1 444:1 obj 1\\
1: 22:1 439:1 441:1 obj 1\\
1: 24:1 363:1 obj 1\\
1: 25:1 362:1 obj 1\\
2: 29:1 359:1 obj 1\\
1: 34:1 427:1 442:1 obj 1\\
1: 48:1 339:1 obj 1\\
1: 54:1 424:1 427:1 obj 1\\
2: 65:1 324:1 obj 1\\
1: 84:1 305:1 obj 1\\
1: 96:1 393:1 419:1 obj 1\\
1: 99:1 394:1 415:1 obj 1\\
1: 112:1 393:1 401:1 obj 1\\
1: 151:1 234:1 obj 1\\
1: 152:1 233:1 obj 1\\
1: 153:1 351:1 402:1 obj 1\\
1: 157:1 349:1 400:1 obj 1\\
1: 162:1 299:1 443:1 obj 1\\
1: 162:1 349:1 395:1 obj 1\\
1: 0:1 391:1 obj 1\\
1: 21:1 366:1 obj 1\\
1: 28:1 432:1 442:1 obj 1\\
2: 33:1 427:1 443:1 obj 1\\
1: 36:1 429:1 439:1 obj 1\\
1: 44:1 422:1 440:1 obj 1\\
1: 56:1 418:1 434:1 obj 1\\
1: 67:1 420:1 423:1 obj 1\\
1: 77:1 313:1 obj 1\\
1: 90:1 298:1 obj 1\\
1: 92:1 294:1 obj 1\\
1: 93:1 293:1 obj 1\\
1: 96:1 403:1 410:1 obj 1\\
1: 97:1 398:1 414:1 obj 1\\
1: 150:1 236:1 obj 1\\
1: 157:1 318:1 430:1 obj 1\\
1: 157:1 337:1 413:1 obj 1\\
1: 167:1 221:1 obj 1\\
1: 218:1 271:1 417:1 obj 1\\
1: 19:1 370:1 obj 1\\
1: 34:1 428:1 441:1 obj 1\\
1: 74:1 403:1 430:1 obj 1\\
1: 82:1 398:1 425:1 obj 1\\
1: 87:1 405:1 418:1 obj 1\\
1: 94:1 396:1 418:1 obj 1\\
1: 97:1 406:2 obj 1\\
1: 153:1 338:1 415:1 obj 1\\
1: 156:1 341:1 409:1 obj 1\\
1: 158:1 314:1 433:1 obj 1\\
2: 223:1 262:1 422:1 obj 1\\
1: 21:1 437:1 444:1 obj 1\\
1: 27:1 425:1 448:1 obj 1\\
1: 33:1 428:1 442:1 obj 1\\
1: 112:1 395:1 399:1 obj 1\\
1: 152:1 376:2 obj 1\\
1: 154:1 342:1 410:1 obj 1\\
1: 162:1 300:1 442:1 obj 1\\
1: 163:1 331:1 414:1 obj 1\\
1: 217:1 265:1 423:1 obj 1\\
1: 153:1 326:1 425:1 obj 1\\
1: 218:1 266:1 421:1 obj 1\\
1: 59:1 331:1 obj 1\\
1: 62:1 411:1 434:1 obj 1\\
1: 37:1 431:1 438:1 obj 1\\
1: 28:1 431:1 445:1 obj 1\\
1: 87:1 405:1 419:1 obj 1\\
1: 99:1 397:1 416:1 obj 1\\
1: 194:1 267:1 obj 1\\
1: 426:1 obj 1\\



The last LP solution 


File: BPP_1000_750_0.1_0.8_0.txt  Instance No. 1
Wed Feb 25 13:56:02 2015

LP solution: lpval=463.014423076923 lpbnd=464

0.1153846153846153: 2:1 391:1 obj 1\\
3.115384615384615: 3:1 393:1 obj 1\\
2: 4:1 385:1 obj 1\\
0.8846153846153846: 5:1 387:1 obj 1\\
2: 5:1 390:1 obj 1\\
0.8846153846153846: 7:1 388:1 obj 1\\
3: 11:1 378:1 obj 1\\
2: 13:1 374:1 obj 1\\
2: 17:1 372:1 obj 1\\
4: 23:1 364:1 obj 1\\
1: 27:1 360:1 obj 1\\
3: 35:1 353:1 obj 1\\
2: 37:1 352:1 obj 1\\
2: 40:1 349:1 obj 1\\
2: 42:1 346:1 obj 1\\
0.2602903982508025: 43:1 347:1 obj 1\\
1: 49:1 338:1 obj 1\\
1.593157794392344: 53:1 336:1 obj 1\\
2: 54:1 334:1 obj 1\\
3: 55:1 333:1 obj 1\\
2: 66:1 323:1 obj 1\\
1: 67:1 322:1 obj 1\\
4: 69:1 320:1 obj 1\\
0.9166189829183184: 73:1 317:1 obj 1\\
1.476801564815309: 74:1 318:1 obj 1\\
1: 80:1 309:1 obj 1\\
1: 87:1 304:1 obj 1\\
2: 90:1 296:1 obj 1\\
1: 91:1 295:1 obj 1\\
1: 94:1 293:1 obj 1\\
1: 106:1 283:1 obj 1\\
2: 109:1 281:1 obj 1\\
1: 110:1 276:1 obj 1\\
2: 110:1 279:1 obj 1\\
1: 112:1 277:1 obj 1\\
3: 113:1 274:1 obj 1\\
4: 115:1 273:1 obj 1\\
2: 117:1 270:1 obj 1\\
2: 119:1 268:1 obj 1\\
1: 120:1 267:1 obj 1\\
1: 125:1 263:1 obj 1\\
1: 130:1 257:1 obj 1\\
2: 131:1 256:1 obj 1\\
1: 132:1 255:1 obj 1\\
1: 133:1 255:1 obj 1\\
1: 137:1 252:1 obj 1\\
1: 137:1 253:1 obj 1\\
2: 138:1 251:1 obj 1\\
3: 139:1 248:1 obj 1\\
1: 141:1 254:1 obj 1\\
1: 144:1 249:1 obj 1\\
1: 145:1 244:1 obj 1\\
2: 146:1 243:1 obj 1\\
1: 146:1 247:1 obj 1\\
1: 148:1 237:1 obj 1\\
0.9711538461538463: 152:1 262:1 obj 1\\
0.3590959113046099: 153:1 325:1 427:1 obj 1\\
1: 155:1 325:1 425:1 obj 1\\
3: 157:1 230:1 obj 1\\
3: 163:1 226:1 obj 1\\
1: 168:1 221:1 obj 1\\
1: 172:1 215:1 obj 1\\
1: 174:1 214:1 obj 1\\
1: 174:1 216:1 obj 1\\
2.985576923076923: 175:1 213:1 obj 1\\
0.9855769230769234: 176:1 217:1 obj 1\\
1.985576923076923: 177:1 210:1 obj 1\\
1: 182:1 204:1 obj 1\\
1.014423076923077: 185:1 199:1 obj 1\\
2: 187:1 197:1 obj 1\\
0.9855769230769231: 187:1 198:1 obj 1\\
1: 192:2 obj 1\\
0.3663786133863695: 33:1 429:1 442:1 obj 1\\
0.9855769230769231: 185:1 211:1 obj 1\\
1: 45:1 341:1 obj 1\\
3: 100:1 288:1 obj 1\\
3: 104:1 284:1 obj 1\\
1: 112:1 275:1 obj 1\\
2: 147:1 254:1 obj 1\\
2: 22:1 365:1 obj 1\\
3: 38:1 351:1 obj 1\\
1: 97:1 291:1 obj 1\\
1: 107:1 285:1 obj 1\\
1: 122:1 265:1 obj 1\\
1: 129:1 261:1 obj 1\\
2: 136:1 259:1 obj 1\\
2: 144:1 245:1 obj 1\\
2: 161:1 227:1 obj 1\\
2.985576923076923: 179:1 212:1 obj 1\\
3: 39:1 350:1 obj 1\\
1: 46:1 341:1 obj 1\\
1: 57:1 331:1 obj 1\\
1: 59:1 329:1 obj 1\\
1: 103:1 287:1 obj 1\\
2: 108:1 280:1 obj 1\\
1: 170:1 218:1 obj 1\\
1: 1:1 389:1 obj 1\\
0.8846153846153847: 1:1 391:1 obj 1\\
2: 6:1 383:1 obj 1\\
0.1153846153846153: 6:1 386:1 obj 1\\
1: 20:1 367:1 obj 1\\
1: 24:1 364:1 obj 1\\
1: 43:1 344:1 obj 1\\
0.6409040886953901: 67:1 325:1 obj 1\\
1: 76:1 313:1 obj 1\\
2: 78:1 311:1 obj 1\\
2: 99:1 289:1 obj 1\\
4: 105:1 282:1 obj 1\\
2: 128:1 260:1 obj 1\\
1: 134:1 255:1 obj 1\\
2: 140:1 250:1 obj 1\\
1: 142:1 247:1 obj 1\\
2: 145:1 242:1 obj 1\\
1: 148:1 238:1 obj 1\\
2: 164:1 225:1 obj 1\\
1: 165:1 224:1 obj 1\\
2: 171:1 216:1 obj 1\\
1.014423076923077: 176:1 210:1 obj 1\\
2: 178:1 209:1 obj 1\\
1: 183:1 202:1 obj 1\\
1.115384615384615: 4:1 388:1 obj 1\\
1: 9:1 379:1 obj 1\\
2: 10:1 378:1 obj 1\\
1: 27:1 363:1 obj 1\\
1: 47:1 339:1 obj 1\\
1.260290398250802: 53:1 335:1 obj 1\\
2: 64:1 325:1 obj 1\\
1.083381017081682: 74:1 317:1 obj 1\\
5: 82:1 307:1 obj 1\\
3: 101:1 286:1 obj 1\\
3: 111:1 277:1 obj 1\\
2: 114:1 273:1 obj 1\\
0.07416781702955744: 157:1 320:1 428:1 obj 1\\
1: 165:1 225:1 obj 1\\
0.01442307692307687: 175:1 211:1 obj 1\\
0.01442307692307665: 177:1 212:1 obj 1\\
1: 180:1 207:1 obj 1\\
1: 184:1 200:1 obj 1\\
2: 7:1 381:1 obj 1\\
2: 8:1 380:1 obj 1\\
1: 15:1 373:1 obj 1\\
1: 20:1 369:1 obj 1\\
1.739709601749198: 54:1 335:1 obj 1\\
2: 56:1 332:1 obj 1\\
1: 58:1 330:1 obj 1\\
2: 63:1 326:1 obj 1\\
1: 67:1 323:1 obj 1\\
0.08338101708168155: 73:1 417:1 421:1 obj 1\\
3: 83:1 306:1 obj 1\\
1: 83:1 393:1 429:1 obj 1\\
2: 86:1 302:1 obj 1\\
1: 95:1 292:1 obj 1\\
1: 115:1 272:1 obj 1\\
1: 121:1 266:1 obj 1\\
2: 127:1 261:1 obj 1\\
1: 143:1 246:1 obj 1\\
2: 148:1 240:1 obj 1\\
0.004650100636642007: 152:1 236:1 obj 1\\
0.4068422056076558: 154:1 336:1 416:1 obj 1\\
2: 167:1 222:1 obj 1\\
1: 172:1 216:1 obj 1\\
0.01442307692307665: 179:1 213:1 obj 1\\
1: 183:1 205:1 obj 1\\
2.014423076923077: 186:1 198:1 obj 1\\
1.985576923076923: 186:1 199:1 obj 1\\
1: 6:1 382:1 obj 1\\
1: 11:1 377:1 obj 1\\
2: 14:1 374:1 obj 1\\
1: 32:1 356:1 obj 1\\
1: 33:1 355:1 obj 1\\
2: 34:1 354:1 obj 1\\
0.6068285701874206: 56:1 409:1 442:1 obj 1\\
2: 61:1 327:1 obj 1\\
0.7662820191040673: 67:1 411:1 429:1 obj 1\\
2: 68:1 321:1 obj 1\\
1: 71:1 318:1 obj 1\\
2: 72:1 317:1 obj 1\\
1: 75:1 313:1 obj 1\\
2: 85:1 303:1 obj 1\\
1: 89:1 299:1 obj 1\\
2: 102:1 285:1 obj 1\\
1: 123:1 265:1 obj 1\\
2: 124:1 264:1 obj 1\\
1: 126:1 262:1 obj 1\\
2: 148:1 239:1 obj 1\\
0.2872491324011367: 157:1 342:1 407:1 obj 1\\
0.1243080929235763: 158:1 349:1 399:1 obj 1\\
1: 159:1 228:1 obj 1\\
1: 166:1 223:1 obj 1\\
2: 188:1 196:1 obj 1\\
1: 189:1 195:1 obj 1\\
1.55346448274697: 22:1 437:1 443:1 obj 1\\
1: 30:1 359:1 obj 1\\
1: 44:1 343:1 obj 1\\
1: 46:1 340:1 obj 1\\
1: 78:1 394:1 432:1 obj 1\\
2: 79:1 310:1 obj 1\\
1: 81:1 308:1 obj 1\\
1: 87:1 301:1 obj 1\\
1: 88:1 300:1 obj 1\\
1: 95:1 406:1 408:1 obj 1\\
1.098363870239068: 96:1 402:1 411:1 obj 1\\
0.2866209377307754: 97:1 401:1 411:1 obj 1\\
1: 98:1 290:1 obj 1\\
0.3886640184186779: 99:1 405:2 obj 1\\
1: 106:1 280:1 obj 1\\
1: 110:1 278:1 obj 1\\
1: 112:1 397:2 obj 1\\
1: 118:1 269:1 obj 1\\
0.004650100636642007: 151:1 326:1 427:1 obj 1\\
0.02419605320951046: 152:1 320:1 432:1 obj 1\\
1: 157:1 331:1 419:1 obj 1\\
1: 158:1 337:1 412:1 obj 1\\
1: 168:1 220:1 obj 1\\
2: 169:1 219:1 obj 1\\
3: 181:1 206:1 obj 1\\
1: 183:1 203:1 obj 1\\
1: 191:1 194:1 obj 1\\
0.5676868293907273: 217:1 267:1 421:1 obj 1\\
0.5532637524676505: 218:1 265:1 422:1 obj 1\\
0.1153846153846154: 5:1 384:1 obj 1\\
0.8846153846153847: 6:1 445:1 447:1 obj 1\\
2: 17:1 371:1 obj 1\\
1: 18:1 370:1 obj 1\\
1: 26:1 361:1 obj 1\\
1: 30:1 358:1 obj 1\\
3: 31:1 357:1 obj 1\\
1: 56:1 333:1 obj 1\\
1: 60:1 328:1 obj 1\\
0.43904315550171: 62:1 406:1 438:1 obj 1\\
0.8531042904513451: 67:1 395:1 442:1 obj 1\\
2: 70:1 319:1 obj 1\\
2: 90:1 297:1 obj 1\\
1: 116:1 271:1 obj 1\\
1: 118:1 270:1 obj 1\\
2: 135:1 258:1 obj 1\\
2: 136:1 257:1 obj 1\\
1: 142:1 246:1 obj 1\\
1: 147:1 241:1 obj 1\\
1: 149:1 236:1 obj 1\\
3: 150:1 235:1 obj 1\\
1: 153:1 232:1 obj 1\\
0.6430546840685177: 154:1 315:1 435:1 obj 1\\
1: 158:1 229:1 obj 1\\
0.7397096017491975: 163:1 347:1 396:1 obj 1\\
1: 182:1 208:1 obj 1\\
1: 183:1 201:1 obj 1\\
1: 186:1 200:1 obj 1\\
0.8846153846153846: 3:1 392:1 obj 1\\
1: 9:1 444:1 447:1 obj 1\\
2: 20:1 368:1 obj 1\\
1: 27:1 361:1 obj 1\\
1: 32:1 357:1 obj 1\\
1.479681051833903: 37:1 431:1 436:1 obj 1\\
1: 40:1 348:1 obj 1\\
1: 41:1 347:1 obj 1\\
1: 43:1 345:1 obj 1\\
1: 50:1 337:1 obj 1\\
1: 51:1 336:1 obj 1\\
1: 52:1 335:1 obj 1\\
1: 73:1 316:1 obj 1\\
1: 78:1 313:1 obj 1\\
1: 80:1 310:1 obj 1\\
0.8990134230455501: 94:1 401:1 414:1 obj 1\\
0.3931714298125794: 96:1 404:1 409:1 obj 1\\
4: 155:1 231:1 obj 1\\
0.9016361297609321: 156:1 320:1 429:1 obj 1\\
1: 161:1 228:1 obj 1\\
1: 191:1 193:1 obj 1\\
0.8038993078515893: 225:1 271:1 410:1 obj 1\\
1.115384615384615: 1:1 387:1 obj 1\\
0.8846153846153847: 2:1 386:1 obj 1\\
0.8846153846153846: 4:1 384:1 obj 1\\
1: 12:1 375:1 obj 1\\
1: 14:1 373:1 obj 1\\
1: 16:1 372:1 obj 1\\
0.5203189481660966: 22:1 436:1 444:1 obj 1\\
0.9262165690869334: 22:1 439:1 441:1 obj 1\\
1: 24:1 363:1 obj 1\\
1: 25:1 362:1 obj 1\\
0.1153846153846153: 27:1 426:1 447:1 obj 1\\
1.520318948166097: 28:1 431:1 444:1 obj 1\\
2: 29:1 359:1 obj 1\\
0.9262165690869334: 34:1 427:1 442:1 obj 1\\
1: 48:1 339:1 obj 1\\
0.1465518073568534: 53:1 425:2 obj 1\\
0.2602903982508025: 54:1 420:1 433:1 obj 1\\
1: 54:1 424:1 427:1 obj 1\\
2: 65:1 324:1 obj 1\\
0.04513486999290511: 82:1 410:1 419:1 obj 1\\
0.4983157842659313: 82:1 414:1 415:1 obj 1\\
1: 84:1 305:1 obj 1\\
0.07024974539171019: 96:1 393:1 419:1 obj 1\\
0.637666521061295: 99:1 394:1 415:1 obj 1\\
0.8143656392236744: 112:1 393:1 401:1 obj 1\\
1: 151:1 234:1 obj 1\\
1: 152:1 233:1 obj 1\\
0.9016361297609321: 153:1 351:1 402:1 obj 1\\
0.3569453159314823: 161:1 315:1 430:1 obj 1\\
0.8846153846153847: 162:1 299:1 443:1 obj 1\\
1.146895709548655: 162:1 349:1 395:1 obj 1\\
0.01442307692307687: 187:1 271:1 442:1 obj 1\\
2: 190:1 195:1 obj 1\\
2: 192:1 194:1 obj 1\\
1: 0:1 391:1 obj 1\\
1: 21:1 366:1 obj 1\\
0.2360943450412916: 28:1 432:1 442:1 obj 1\\
0.2435867067926115: 28:1 437:2 obj 1\\
1.521282236305452: 33:1 427:1 443:1 obj 1\\
1.073783430913067: 36:1 429:1 439:1 obj 1\\
0.4875862772165418: 44:1 422:1 440:1 obj 1\\
0.7397096017491975: 67:1 420:1 423:1 obj 1\\
1: 81:1 310:1 obj 1\\
1: 90:1 298:1 obj 1\\
1: 92:1 294:1 obj 1\\
1: 93:1 293:1 obj 1\\
1.438214954556642: 96:1 403:1 410:1 obj 1\\
1.43290064002008: 97:1 398:1 414:1 obj 1\\
1: 150:1 236:1 obj 1\\
0.995349899363358: 151:1 236:1 obj 1\\
0.5231984351846912: 157:1 318:1 430:1 obj 1\\
1: 157:1 337:1 413:1 obj 1\\
0.08387352122057568: 162:1 326:1 421:1 obj 1\\
1: 167:1 221:1 obj 1\\
1.181677615225334: 218:1 271:1 417:1 obj 1\\
1.115384615384615: 7:1 392:1 obj 1\\
2: 19:1 370:1 obj 1\\
1: 33:1 423:1 449:1 obj 1\\
1.073783430913067: 34:1 428:1 441:1 obj 1\\
0.4138028463034751: 36:1 434:2 obj 1\\
0.5203189481660966: 37:1 429:1 438:1 obj 1\\
1: 59:1 331:1 obj 1\\
0.4398174181030097: 74:1 403:1 430:1 obj 1\\
0.07508434653756835: 82:1 394:1 429:1 obj 1\\
0.3814649992035948: 82:1 398:1 425:1 obj 1\\
1.222671963162644: 87:1 405:1 418:1 obj 1\\
1.10098657695445: 94:1 396:1 418:1 obj 1\\
0.280478422249145: 97:1 406:2 obj 1\\
0.1856343607763255: 112:1 396:1 398:1 obj 1\\
1.864017694672774: 153:1 338:1 415:1 obj 1\\
0.1153846153846153: 154:1 299:1 448:1 obj 1\\
1: 156:1 341:1 409:1 obj 1\\
0.1153846153846153: 157:1 300:1 445:1 obj 1\\
0.7397096017491975: 158:1 314:1 433:1 obj 1\\
1.028846153846154: 223:1 262:1 422:1 obj 1\\
0.1961006921484108: 225:1 267:1 414:1 obj 1\\
0.9593621036678068: 21:1 437:1 444:1 obj 1\\
0.8846153846153847: 27:1 425:1 448:1 obj 1\\
0.1123391503081784: 33:1 428:1 442:1 obj 1\\
0.5124137227834582: 36:1 427:1 440:1 obj 1\\
0.3400194153904084: 44:1 430:2 obj 1\\
0.3569453159314823: 56:1 416:1 435:1 obj 1\\
1: 77:1 312:1 obj 1\\
1: 113:1 393:1 400:1 obj 1\\
1: 152:1 376:2 obj 1\\
0.7127508675988633: 154:1 342:1 410:1 obj 1\\
0.0983638702390679: 156:1 351:1 399:1 obj 1\\
0.1359823053272262: 158:1 338:1 411:1 obj 1\\
1: 160:1 227:1 obj 1\\
0.6430546840685177: 161:1 326:1 422:1 obj 1\\
0.8846153846153847: 162:1 300:1 442:1 obj 1\\
1: 173:1 215:1 obj 1\\
0.4467362475323495: 217:1 265:1 423:1 obj 1\\
0.2362124784608619: 223:1 267:1 416:1 obj 1\\
0.04063789633219317: 21:1 438:1 443:1 obj 1\\
0.7397096017491975: 43:1 428:1 432:1 obj 1\\
1.17239430739305: 44:1 425:1 434:1 obj 1\\
0.03622611388109709: 56:1 423:1 429:1 obj 1\\
0.6763414598829053: 62:1 418:1 427:1 obj 1\\
0.8846153846153847: 62:1 419:1 426:1 obj 1\\
0.7773280368373559: 87:1 399:1 423:1 obj 1\\
0.2872491324011367: 91:1 394:1 422:1 obj 1\\
0.7127508675988633: 91:1 407:1 411:1 obj 1\\
0.9736694605200272: 99:1 396:1 414:1 obj 1\\
0.2684216940742646: 153:1 326:1 425:1 obj 1\\
0.6068285701874206: 153:1 349:1 404:1 obj 1\\
0.1219676273403478: 154:1 349:1 403:1 obj 1\\
0.2602903982508025: 163:1 314:1 429:1 obj 1\\
0.2650586323070155: 218:1 266:1 421:1 obj 1\\
0.7349413676929845: 223:1 266:1 417:1 obj 1\\
1: 191:1 262:1 446:1 obj 1\\



